NAME : TW_55_seed_None_id_2
TYPE : CVRPTW
DIMENSION : 21
EDGE_WEIGHT_TYPE : EUC_2D
CAPACITY : 40
SERVICE_TIME : 100
LATE_COEFF : 0
NODE_COORD_SECTION
1	190	135
2	352	475
3	531	293
4	178	820
5	637	685
6	13	83
7	389	719
8	742	738
9	841	600
10	947	496
11	816	950
12	649	201
13	183	447
14	180	872
15	792	820
16	775	581
17	317	791
18	130	470
19	883	982
20	979	449
21	935	105
DEMAND_SECTION
1	0
2	6
3	7
4	6
5	3
6	2
7	7
8	6
9	8
10	2
11	3
12	4
13	3
14	8
15	7
16	4
17	3
18	2
19	3
20	6
21	6
TIME_WINDOW_SECTION
1	0	10000
2	0	10000
3	0	10000
4	0	10000
5	0	10000
6	0	10000
7	0	10000
8	0	10000
9	0	10000
10	0	10000
11	0	10000
12	0	10000
13	0	10000
14	0	10000
15	0	10000
16	0	10000
17	0	10000
18	0	10000
19	0	10000
20	0	10000
21	0	10000
DEPOT_SECTION
1
-1
EOF
